Academic license - for non-commercial use only
Set parameter TimeLimit to value 7200

Gurobi Optimizer version 8.0.0 build v8.0.0rc0 (linux64)
Copyright (c) 2018, Gurobi Optimization, LLC

Read LP format model from file la07_flow.lp
Reading time = 1.60 seconds
: 54189 rows, 99156 columns, 2639463 nonzeros
Optimize a model with 54189 rows, 99156 columns and 2639463 nonzeros
Variable types: 0 continuous, 99156 integer (99155 binary)
Coefficient statistics:
  Matrix range     [1e+00, 9e+02]
  Objective range  [1e+00, 1e+00]
  Bounds range     [1e+00, 9e+02]
  RHS range        [1e+00, 1e+00]
Presolve removed 8911 rows and 8722 columns (presolve time = 5s) ...
Presolve removed 10095 rows and 9930 columns (presolve time = 11s) ...
Presolve removed 10095 rows and 9930 columns
Presolve time: 11.45s
Presolved: 44094 rows, 89226 columns, 2597383 nonzeros
Variable types: 0 continuous, 89226 integer (89225 binary)

Deterministic concurrent LP optimizer: dual simplex and barrier
Showing barrier log only...

Presolve removed 80 rows and 65 columns
Presolved: 44014 rows, 89161 columns, 2597208 nonzeros

Root barrier log...

Elapsed ordering time = 5s
Elapsed ordering time = 10s
Elapsed ordering time = 15s
Ordering time: 16.47s

Barrier statistics:
 AA' NZ     : 4.413e+06
 Factor NZ  : 1.697e+07 (roughly 200 MBytes of memory)
 Factor Ops : 1.877e+10 (roughly 2 seconds per iteration)
 Threads    : 1

                  Objective                Residual
Iter       Primal          Dual         Primal    Dual     Compl     Time
   0   1.61396479e+03 -6.07762085e+05  1.74e+04 1.49e-01  2.04e+02    37s
   1   1.30104581e+03 -6.05697587e+05  1.09e+04 4.43e+00  1.27e+02    39s
   2   1.07175174e+03 -5.85198635e+05  3.29e+03 1.67e-12  4.04e+01    42s
   3   9.41770210e+02 -4.64729186e+05  5.71e+02 2.16e-12  8.21e+00    46s
   4   9.21956814e+02 -2.61313426e+05  2.02e+02 1.68e-12  2.98e+00    49s
   5   9.15807550e+02 -1.51996940e+05  8.40e+01 3.42e-12  1.42e+00    53s
   6   9.13206166e+02 -8.26337655e+04  3.90e+01 4.46e-12  7.06e-01    57s
   7   9.11576193e+02 -2.81176053e+04  1.28e+01 3.33e-12  2.36e-01    59s
   8   9.10919170e+02 -1.56085281e+04  4.92e+00 1.08e-12  1.21e-01    63s
   9   9.10226131e+02 -1.02026417e+04  2.07e+00 1.05e-12  7.45e-02    67s
  10   9.08782087e+02 -7.40522010e+03  9.66e-01 9.09e-13  5.16e-02    71s
  11   8.43780295e+02 -3.73449128e+03  1.57e-01 6.25e-13  2.59e-02    74s
  12   7.73074506e+02 -1.12813134e+02  9.21e-04 5.66e-13  4.85e-03    78s
  13   7.14844126e+02  3.75612102e+02  2.86e-04 1.98e-13  1.86e-03    81s
  14   6.69378441e+02  5.09994924e+02  1.16e-04 1.00e-13  8.73e-04    85s
  15   6.30503756e+02  5.86162291e+02  1.18e-05 9.38e-14  2.43e-04    89s
  16   6.16807009e+02  6.03774367e+02  1.15e-06 9.21e-14  7.13e-05    92s
  17   6.15124056e+02  6.06093659e+02  6.86e-07 8.10e-14  4.94e-05    95s
  18   6.13955322e+02  6.09015716e+02  4.01e-07 7.22e-14  2.70e-05    98s
  19   6.12789502e+02  6.10684562e+02  1.40e-07 1.07e-13  1.15e-05   101s
  20   6.12234639e+02  6.11242626e+02  4.00e-08 9.58e-14  5.43e-06   105s
  21   6.12069049e+02  6.11652772e+02  1.49e-08 6.71e-14  2.28e-06   110s
  22   6.12006746e+02  6.11788477e+02  7.00e-09 1.38e-13  1.19e-06   113s
  23   6.11961707e+02  6.11890203e+02  1.75e-09 5.93e-14  3.91e-07   116s
  24   6.11947435e+02  6.11923615e+02  3.39e-10 6.20e-14  1.30e-07   119s
  25   6.11944472e+02  6.11930567e+02  1.21e-10 8.99e-14  7.61e-08   122s
  26   6.11943202e+02  6.11938171e+02  4.94e-11 6.53e-14  2.75e-08   125s
  27   6.11942704e+02  6.11940454e+02  1.52e-10 7.48e-14  1.23e-08   127s
  28   6.11942617e+02  6.11941448e+02  4.73e-09 7.01e-14  6.40e-09   130s
  29   6.11942548e+02  6.11941827e+02  1.05e-09 7.41e-14  3.95e-09   133s
  30   6.11942489e+02  6.11942130e+02  5.92e-10 8.94e-14  1.97e-09   135s
  31   6.11942482e+02  6.11942381e+02  1.41e-09 6.02e-14  5.53e-10   138s
  32   6.11942474e+02  6.11942470e+02  9.63e-10 8.88e-14  2.29e-11   141s

Barrier solved model in 32 iterations and 141.00 seconds
Optimal objective 6.11942474e+02


Root crossover log...

   23989 DPushes remaining with DInf 0.0000000e+00               141s
       0 DPushes remaining with DInf 5.3354054e-11               145s

   11786 PPushes remaining with PInf 5.9295567e-04               145s
     701 PPushes remaining with PInf 0.0000000e+00               150s
       0 PPushes remaining with PInf 0.0000000e+00               150s

  Push phase complete: Pinf 0.0000000e+00, Dinf 1.4644098e-04    150s


Root simplex log...

Iteration    Objective       Primal Inf.    Dual Inf.      Time
   35726    6.1194247e+02   0.000000e+00   1.464410e-04    151s
   35728    6.1194247e+02   0.000000e+00   0.000000e+00    151s
   35728    6.1194247e+02   0.000000e+00   0.000000e+00    151s
Concurrent spin time: 0.00s

Solved with barrier

Root relaxation: objective 6.119425e+02, 35728 iterations, 136.85 seconds
Total elapsed time = 179.46s
Total elapsed time = 186.57s
Total elapsed time = 197.21s
Total elapsed time = 211.30s

    Nodes    |    Current Node    |     Objective Bounds      |     Work
 Expl Unexpl |  Obj  Depth IntInf | Incumbent    BestBd   Gap | It/Node Time

     0     0  611.94247    0 7574          -  611.94247      -     -  232s
     0     0  612.32868    0 11233          -  612.32868      -     -  748s
     0     0  702.37340    0 11164          -  702.37340      -     - 6537s
     0     0          -    0               -  702.37340      -     - 7200s

Cutting planes:
  Implied bound: 2
  Clique: 5
  MIR: 13
  Zero half: 2

Explored 1 nodes (1097120 simplex iterations) in 7200.01 seconds
Thread count was 4 (of 4 available processors)

Solution count 0

Time limit reached
Best objective -, best bound 7.030000000000e+02, gap -

Unable to retrieve attribute 'X'

